Route #1: 93 75
Route #2: 17 8
Route #3: 66 84 90 68
Route #4: 7 2 45 43 29 36 72 57
Route #5: 39 10 18
Route #6: 25 65 78 42 28
Route #7: 63 77 3
Route #8: 69 16 55 76
Route #9: 23 61 100
Route #10: 92 9 86
Route #11: 30 85 11 79
Route #12: 50 91 52
Route #13: 19 97 27
Route #14: 5 12 58
Route #15: 83 51 81
Route #16: 14 49 6 37 87
Route #17: 54 70 1
Route #18: 32 33 53 73 95 24
Route #19: 80 94 56 21
Route #20: 40 88 67 44
Route #21: 34 64 96 48 26 47 38
Route #22: 31 46 35
Route #23: 82 60 59
Route #24: 71 62 99 98 89
Route #25: 20 41 22 15
Route #26: 4 13 74
Cost 27591.0000
Time 16.0005